NAME: PointSet_Angle_35_3
TYPE: TSP
COMMENT: Points chosen discrete uniformly at random out of ${0, \ldots, 500}^2$.
DIMENSION: 35
EDGE_WEIGHT_TYPE: EUC_2D
NODE_COORD_SECTION
1 202 418
2 61 464
3 243 35
4 48 154
5 245 189
6 262 16
7 265 88
8 103 114
9 357 80
10 384 56
11 332 422
12 292 4
13 58 353
14 81 409
15 2 8
16 39 451
17 426 348
18 414 416
19 129 463
20 69 374
21 398 78
22 136 162
23 166 239
24 23 270
25 66 407
26 72 398
27 328 110
28 402 387
29 209 230
30 41 211
31 485 81
32 409 156
33 175 322
34 71 304
35 30 141
EOF
